24
11
36
8
0
8
22
0
6
0
0
0
0
0
0
11
20
21
10
0
0
8
24
17
8
15
0
35
0
16
19
0
28
0
18
0
20
0
15
0
33
0
0
0
38
14
12
0
11
29
20
12
25
12
0
0
7
14
11
0
0
8
34
19
12
0
0
12
25
21
0
0
7
35
31
0
17
17
7
14
8
19
0
0
12
25
6
11
11
0
10
19
0
17
8
10
0
13
0
16
